Copyright (C) 2013-2015, Filipe Brandao
Build (method = -2)
  #dp: 62486
  Step-3' Graph: 793 vertices and 38480 arcs (0.22s)
  Step-4' Graph: 782 vertices and 38458 arcs (0.23s)
  #V4/#V3 = 0.99
  #A4/#A3 = 1.00
Ready! (0.23s)
Optimize a model with 955 rows, 38459 columns and 113818 nonzeros
Presolve removed 53 rows and 53 columns
Presolve time: 0.21s
Presolved: 902 rows, 38406 columns, 113661 nonzeros
Variable types: 0 continuous, 38406 integer (32531 binary)
Found heuristic solution: objective 137.0000000
Optimize a model with 902 rows, 38406 columns and 113661 nonzeros
Presolved: 902 rows, 38406 columns, 113661 nonzeros

Root barrier log...

Ordering time: 0.01s

Barrier statistics:
 AA' NZ     : 7.936e+04
 Factor NZ  : 2.499e+05 (roughly 18 MBytes of memory)
 Factor Ops : 9.549e+07 (less than 1 second per iteration)
 Threads    : 1

                  Objective                Residual
Iter       Primal          Dual         Primal    Dual     Compl     Time
   0   1.22195551e+04 -9.21365884e+04  1.23e+05 1.66e-01  1.81e+01     0s
   1   4.04754570e+03 -3.25200468e+04  1.72e+04 7.77e-16  2.77e+00     0s
   2   1.10270393e+03 -1.23793253e+04  2.27e+03 1.11e-02  4.70e-01     0s
   3   4.66281541e+02 -3.22612820e+03  2.56e+02 1.90e-03  8.03e-02     0s
   4   2.00241311e+02 -6.48872247e+02  2.42e+01 3.53e-04  1.39e-02     0s
   5   1.18697732e+02 -2.75134634e+02  5.58e+00 1.45e-04  5.71e-03     0s
   6   1.04094000e+02 -1.26103590e+02  3.87e+00 7.36e-05  3.33e-03     0s
   7   8.62632769e+01 -4.16845281e+01  1.77e+00 2.59e-05  1.78e-03     0s
   8   7.88077514e+01  1.25095617e+00  9.92e-01 3.73e-16  1.06e-03     0s
   9   7.47442397e+01  2.95442968e+01  6.15e-01 3.46e-16  6.11e-04     0s
  10   7.15030179e+01  4.53056424e+01  3.33e-01 3.27e-16  3.50e-04     0s
  11   7.02137412e+01  5.55753591e+01  2.25e-01 3.47e-16  1.95e-04     0s
  12   6.92467080e+01  5.88185445e+01  1.35e-01 3.64e-16  1.38e-04     0s
  13   6.93060677e+01  6.15173731e+01  1.19e-01 3.33e-16  1.03e-04     0s
  14   6.85724951e+01  6.31011943e+01  7.22e-02 3.71e-16  7.20e-05     0s
  15   6.80731992e+01  6.45336670e+01  3.01e-02 5.03e-16  4.63e-05     0s
  16   6.78902591e+01  6.60317287e+01  1.36e-02 4.00e-16  2.43e-05     0s
  17   6.77645583e+01  6.67032614e+01  5.30e-03 3.46e-16  1.38e-05     0s
  18   6.77369563e+01  6.69246520e+01  3.97e-03 4.34e-16  1.06e-05     1s
  19   6.77148571e+01  6.70340374e+01  3.03e-03 3.43e-16  8.87e-06     1s
  20   6.76836476e+01  6.72388097e+01  1.67e-03 4.75e-16  5.80e-06     1s
  21   6.76597000e+01  6.73425640e+01  8.19e-04 4.52e-16  4.13e-06     1s
  22   6.76499088e+01  6.74333789e+01  5.61e-04 3.78e-16  2.82e-06     1s
  23   6.76413200e+01  6.74652984e+01  4.10e-04 4.20e-16  2.29e-06     1s
  24   6.76368917e+01  6.75083369e+01  3.29e-04 4.37e-16  1.67e-06     1s
  25   6.76312433e+01  6.75207201e+01  2.36e-04 4.80e-16  1.44e-06     1s
  26   6.76283221e+01  6.75332078e+01  2.05e-04 4.71e-16  1.24e-06     1s
  27   6.76264567e+01  6.75472651e+01  1.90e-04 5.12e-16  1.03e-06     1s
  28   6.76250436e+01  6.75768387e+01  1.44e-04 4.03e-16  6.28e-07     1s
  29   6.76216210e+01  6.75801849e+01  1.00e-04 4.61e-16  5.40e-07     1s
  30   6.76185858e+01  6.75891186e+01  7.29e-05 4.22e-16  3.84e-07     1s
  31   6.76173418e+01  6.75895973e+01  6.51e-05 5.73e-16  3.61e-07     1s
  32   6.76163090e+01  6.75931733e+01  5.93e-05 4.36e-16  3.01e-07     1s
  33   6.76152570e+01  6.76004002e+01  4.60e-05 4.41e-16  1.93e-07     1s
  34   6.76133940e+01  6.76096291e+01  3.97e-06 3.33e-16  4.90e-08     1s
  35   6.76130136e+01  6.76127763e+01  1.14e-07 3.44e-16  3.09e-09     1s
  36   6.76130000e+01  6.76129998e+01  9.91e-13 3.83e-16  3.09e-12     1s
  37   6.76130000e+01  6.76130000e+01  2.10e-12 3.59e-16  3.09e-15     1s

Barrier solved model in 37 iterations and 0.97 seconds
Optimal objective 6.76130000e+01


Root relaxation: objective 6.761300e+01, 30502 iterations, 1.59 seconds
Total elapsed time = 6.83s

    Nodes    |    Current Node    |     Objective Bounds      |     Work
 Expl Unexpl |  Obj  Depth IntInf | Incumbent    BestBd   Gap | It/Node Time

     0     0   67.61300    0  108  137.00000   67.61300  50.6%     -    9s
H    0     0                      70.0000000   67.61300  3.41%     -    9s
H    0     0                      69.0000000   67.61300  2.01%     -   10s
     0     0   67.61300    0  208   69.00000   67.61300  2.01%     -   24s
     0     0   67.61300    0  226   69.00000   67.61300  2.01%     -   46s

Cutting planes:
  Zero half: 6

Explored 0 nodes (59518 simplex iterations) in 60.00 seconds
Thread count was 1 (of 4 available processors)

Time limit reached
Best objective 6.900000000000e+01, best bound 6.800000000000e+01, gap 1.4493%
Preprocessing time: 0.31 seconds
Gurobi run time: 60.00 seconds
Total run time: 60.31 seconds
Objective: 69
Solution:
1 x [i=1, i=129]
1 x [i=2, i=77]
1 x [i=3, i=87, i=171]
1 x [i=4, i=105]
1 x [i=5, i=87, i=170]
1 x [i=6, i=106, i=147]
1 x [i=7, i=74]
1 x [i=8, i=96, i=158]
1 x [i=9, i=118, i=131]
1 x [i=9, i=123, i=129]
1 x [i=10, i=115, i=132]
1 x [i=11, i=153, i=155, i=157, i=164, i=168]
1 x [i=12, i=84, i=167]
1 x [i=13, i=99, i=150]
1 x [i=14, i=71]
1 x [i=15, i=90, i=159]
1 x [i=16, i=69]
1 x [i=17, i=80]
1 x [i=18, i=64]
1 x [i=19, i=63]
1 x [i=20, i=62]
1 x [i=21, i=60]
1 x [i=22, i=57]
1 x [i=22, i=72, i=172]
1 x [i=23, i=113, i=119]
1 x [i=24, i=93, i=144]
1 x [i=25, i=90]
1 x [i=26, i=75]
1 x [i=27, i=108, i=125]
1 x [i=28, i=126, i=137, i=151]
1 x [i=29, i=86, i=148]
1 x [i=30, i=91, i=141]
1 x [i=31, i=107, i=125]
1 x [i=32, i=78, i=156]
1 x [i=33, i=65, i=173]
1 x [i=34, i=85, i=146]
1 x [i=34, i=89, i=139]
1 x [i=34, i=101, i=140, i=173]
1 x [i=35, i=70]
1 x [i=36, i=92, i=136]
1 x [i=37, i=51]
1 x [i=38, i=82, i=143]
1 x [i=39, i=109, i=152, i=166]
1 x [i=40, i=56, i=172]
1 x [i=40, i=68]
1 x [i=40, i=83, i=162]
1 x [i=40, i=112, i=142, i=148]
1 x [i=41, i=50]
1 x [i=41, i=76, i=152]
1 x [i=42, i=72, i=161]
1 x [i=43, i=93, i=134]
1 x [i=44, i=48]
1 x [i=45, i=103, i=122]
1 x [i=46, i=73, i=149]
1 x [i=47, i=60]
1 x [i=49, i=97, i=121]
1 x [i=49, i=102, i=117]
1 x [i=52, i=88, i=124]
1 x [i=53, i=55]
1 x [i=54, i=127, i=128, i=135]
1 x [i=58, i=61, i=145]
1 x [i=59, i=76, i=131]
1 x [i=66, i=80, i=138]
1 x [i=67, i=160, i=165, i=169]
1 x [i=79, i=83, i=116, i=163]
1 x [i=81, i=98, i=108, i=154]
1 x [i=94, i=95, i=130, i=132]
1 x [i=94, i=111, i=114, i=120]
1 x [i=100, i=104, i=110, i=133]
